20
1 0 4
2 0 2
2 1 7
3 0 1
3 1 1
3 2 14
4 0 5
4 1 7
4 2 12
4 3 8
5 0 2
5 1 8
5 2 11
5 3 6
5 4 10
6 0 11
6 1 12
6 2 2
6 3 6
6 4 4
6 5 12
7 0 12
7 1 8
7 2 9
7 3 10
7 4 10
7 5 12
7 6 1
8 0 13
8 1 1
8 2 2
8 3 10
8 4 8
8 5 6
8 6 7
8 7 1
9 0 11
9 1 14
9 2 14
9 3 2
9 4 6
9 5 14
9 6 3
9 7 3
9 8 12
10 0 4
10 1 7
10 2 3
10 3 5
10 4 10
10 5 9
10 6 14
10 7 8
10 8 8
10 9 11
11 0 2
11 1 3
11 2 10
11 3 13
11 4 13
11 5 14
11 6 13
11 7 8
11 8 1
11 9 2
11 10 12
12 0 10
12 1 4
12 2 7
12 3 7
12 4 1
12 5 6
12 6 3
12 7 12
12 8 6
12 9 1
12 10 7
12 11 14
13 0 8
13 1 14
13 2 13
13 3 2
13 4 10
13 5 10
13 6 9
13 7 13
13 8 6
13 9 5
13 10 8
13 11 9
13 12 2
14 0 1
14 1 6
14 2 13
14 3 14
14 4 13
14 5 9
14 6 8
14 7 5
14 8 6
14 9 4
14 10 6
14 11 5
14 12 3
14 13 6
15 0 11
15 1 1
15 2 9
15 3 11
15 4 14
15 5 4
15 6 14
15 7 4
15 8 7
15 9 12
15 10 2
15 11 6
15 12 8
15 13 1
15 14 7
16 0 11
16 1 12
16 2 14
16 3 6
16 4 11
16 5 10
16 6 4
16 7 7
16 8 4
16 9 1
16 10 13
16 11 1
16 12 2
16 13 7
16 14 1
16 15 9
17 0 1
17 1 14
17 2 4
17 3 4
17 4 2
17 5 1
17 6 9
17 7 5
17 8 10
17 9 10
17 10 3
17 11 4
17 12 4
17 13 1
17 14 5
17 15 1
17 16 14
18 0 3
18 1 10
18 2 13
18 3 8
18 4 6
18 5 8
18 6 4
18 7 6
18 8 3
18 9 6
18 10 13
18 11 5
18 12 4
18 13 13
18 14 13
18 15 3
18 16 3
18 17 9
19 0 2
19 1 14
19 2 13
19 3 10
19 4 14
19 5 2
19 6 2
19 7 10
19 8 8
19 9 11
19 10 7
19 11 3
19 12 1
19 13 4
19 14 14
19 15 4
19 16 12
19 17 10
19 18 5
